SCIP Status        : problem creation / modification
Total Time         :       0.05
  reading          :       0.05
Original Problem   :
  Problem name     : main4.zpl
  Variables        : 4040 (4040 binary, 0 integer, 0 implicit integer, 0 continuous)
  Constraints      : 0 initial, 4140 maximal
  Objective        : minimize, 4040 non-zeros (abs.min = 0.00221, abs.max = 5700)
